% seed = 0

mint = 17;
% maxt = 59;

nActs = 32;
dur = [0,1,4,2,3,1,3,2,2,1,2,1,2,2,3,3,1,1,2,1,2,2,1,2,4,2,1,2,3,2,1,0];

nSkills = 9;
sreq = [| 0,0,0,0,0,0,0,0,0,
	| 0,0,0,0,1,0,1,2,0,
	| 0,0,1,0,0,1,0,1,0,
	| 0,0,0,0,0,1,0,2,0,
	| 0,0,0,0,1,0,0,0,0,
	| 0,1,0,0,0,0,0,0,0,
	| 0,0,0,0,0,0,0,1,0,
	| 0,0,0,0,2,1,0,0,0,
	| 0,0,2,0,0,0,1,1,0,
	| 0,0,1,0,0,0,0,2,0,
	| 1,1,1,0,0,1,0,0,0,
	| 0,0,0,1,0,0,0,1,0,
	| 0,0,1,0,0,1,0,2,0,
	| 0,0,0,1,0,0,0,1,0,
	| 0,1,0,1,0,0,0,1,0,
	| 0,0,0,0,1,0,0,0,0,
	| 0,0,1,1,0,0,0,1,0,
	| 0,0,2,0,0,0,1,1,0,
	| 1,0,1,0,0,1,0,1,0,
	| 0,1,1,0,0,1,0,1,1,
	| 0,0,1,0,1,1,0,1,0,
	| 0,0,1,0,1,0,0,1,0,
	| 0,1,0,0,1,0,0,1,0,
	| 0,0,1,1,0,1,0,0,0,
	| 1,0,0,0,0,1,0,1,0,
	| 0,0,1,0,0,3,0,0,0,
	| 0,0,0,0,0,1,0,3,0,
	| 0,0,0,0,1,1,0,0,0,
	| 0,0,0,0,0,0,0,1,0,
	| 0,0,1,0,1,0,0,0,0,
	| 0,0,0,1,0,1,0,2,0,
	| 0,0,0,0,0,0,0,0,0, |];

% SumOfsreq = 88;

nResources = 13;
mastery = [| true,true,true,false,false,false,false,false,false,
	| false,true,true,true,true,true,true,true,true,
	| false,false,false,false,false,true,false,false,false,
	| false,false,true,false,false,false,false,true,true,
	| false,false,false,true,true,true,false,false,false,
	| false,false,false,false,false,false,true,true,true,
	| false,false,false,false,true,true,false,false,false,
	| false,false,false,false,false,false,true,true,true,
	| false,true,true,false,false,false,false,false,false,
	| false,false,true,false,false,false,false,false,false,
	| false,false,false,true,true,true,false,false,false,
	| false,false,false,false,false,false,false,true,true,
	| false,false,false,false,false,false,true,true,true, |];

nPrecs = 68;
pred = [1,1,1,2,2,2,3,3,3,4,4,4,5,5,5,6,6,6,7,7,7,8,8,8,9,9,9,10,10,10,11,11,11,12,12,12,13,13,13,14,14,14,15,15,15,16,16,17,18,18,19,19,20,20,21,22,23,23,24,24,25,25,26,27,28,29,30,31];
succ = [2,3,4,12,5,8,10,11,13,6,7,14,17,20,29,9,19,13,9,11,13,9,11,20,24,21,16,18,20,15,25,18,15,17,25,29,28,21,15,19,28,16,17,23,16,22,31,22,19,30,21,31,26,22,27,30,26,27,25,27,26,28,30,29,31,32,32,32];

nUnrels = 194;
unpred = [2,2,2,2,2,2,2,3,3,3,3,3,3,3,3,3,4,4,4,4,4,5,5,5,5,5,5,5,5,5,5,5,5,5,5,5,5,5,5,5,5,6,6,6,6,6,6,6,6,7,7,7,7,7,8,8,8,8,9,9,9,9,9,9,9,9,9,9,9,10,10,10,10,10,10,10,11,11,11,11,11,12,12,12,12,12,12,12,12,12,12,12,13,13,13,13,13,13,14,14,14,14,14,14,14,14,15,15,15,15,15,15,15,16,16,16,16,16,16,16,16,16,16,16,16,17,17,17,17,17,17,17,17,17,17,17,17,18,18,18,18,18,18,18,19,19,19,19,19,19,19,19,20,20,20,20,20,20,20,20,21,21,21,21,21,21,21,21,22,22,22,22,22,22,22,22,23,23,23,23,25,25,26,26,26,26,27,27,27,28,28,29,29,30];
unsucc = [3,4,6,7,10,13,14,4,5,6,7,8,9,12,14,24,5,8,10,12,20,6,7,8,9,10,11,12,13,14,15,16,18,19,21,23,24,25,27,28,31,7,8,10,11,12,14,18,20,8,10,12,14,20,10,12,13,14,10,11,12,13,14,15,17,18,19,20,23,11,12,13,14,24,25,28,12,13,14,20,24,13,14,15,16,18,19,20,21,23,24,27,14,18,19,20,24,25,15,17,18,20,23,24,25,26,18,19,20,21,24,25,28,17,18,19,20,21,23,24,25,26,27,28,29,18,19,20,21,23,24,25,26,27,28,29,31,20,22,23,24,25,26,28,20,22,23,24,25,26,28,30,21,23,24,25,27,28,29,31,22,23,24,25,26,28,30,31,23,24,25,26,27,28,29,31,24,25,28,31,27,29,27,28,29,31,28,30,31,29,30,30,31,31];

USEFUL_RES = [{},
	{2,4,5,6,7,8,11,12,13},
	{1,2,3,4,5,6,7,8,9,10,11,12,13},
	{2,3,4,5,6,7,8,11,12,13},
	{2,5,7,11},
	{1,2,9},
	{2,4,6,8,12,13},
	{2,3,5,7,11},
	{1,2,4,6,8,9,10,12,13},
	{1,2,4,6,8,9,10,12,13},
	{1,2,3,4,5,7,9,10,11},
	{2,4,5,6,8,11,12,13},
	{1,2,3,4,5,6,7,8,9,10,11,12,13},
	{2,4,5,6,8,11,12,13},
	{1,2,4,5,6,8,9,11,12,13},
	{2,5,7,11},
	{1,2,4,5,6,8,9,10,11,12,13},
	{1,2,4,6,8,9,10,12,13},
	{1,2,3,4,5,6,7,8,9,10,11,12,13},
	{1,2,3,4,5,6,7,8,9,10,11,12,13},
	{1,2,3,4,5,6,7,8,9,10,11,12,13},
	{1,2,4,5,6,7,8,9,10,11,12,13},
	{1,2,4,5,6,7,8,9,11,12,13},
	{1,2,3,4,5,7,9,10,11},
	{1,2,3,4,5,6,7,8,11,12,13},
	{1,2,3,4,5,7,9,10,11},
	{2,3,4,5,6,7,8,11,12,13},
	{2,3,5,7,11},
	{2,4,6,8,12,13},
	{1,2,4,5,7,9,10,11},
	{2,3,4,5,6,7,8,11,12,13},
	{}];

POTENTIAL_ACT = [{3,6,9,10,11,13,15,17,18,19,20,21,22,23,24,25,26,30},
	{2,3,4,5,6,7,8,9,10,11,12,13,14,15,16,17,18,19,20,21,22,23,24,25,26,27,28,29,30,31},
	{3,4,8,11,13,19,20,21,24,25,26,27,28,31},
	{2,3,4,7,9,10,11,12,13,14,15,17,18,19,20,21,22,23,24,25,26,27,29,30,31},
	{2,3,4,5,8,11,12,13,14,15,16,17,19,20,21,22,23,24,25,26,27,28,30,31},
	{2,3,4,7,9,10,12,13,14,15,17,18,19,20,21,22,23,25,27,29,31},
	{2,3,4,5,8,11,13,16,19,20,21,22,23,24,25,26,27,28,30,31},
	{2,3,4,7,9,10,12,13,14,15,17,18,19,20,21,22,23,25,27,29,31},
	{3,6,9,10,11,13,15,17,18,19,20,21,22,23,24,26,30},
	{3,9,10,11,13,17,18,19,20,21,22,24,26,30},
	{2,3,4,5,8,11,12,13,14,15,16,17,19,20,21,22,23,24,25,26,27,28,30,31},
	{2,3,4,7,9,10,12,13,14,15,17,18,19,20,21,22,23,25,27,29,31},
	{2,3,4,7,9,10,12,13,14,15,17,18,19,20,21,22,23,25,27,29,31}];
